CPXPARAM_MIP_Tolerances_MIPGap                   0
Lazy constraint(s) or lazy constraint callback is present.
    Disabling dual reductions (CPX_PARAM_REDUCE) in presolve.
    Disabling non-linear reductions (CPX_PARAM_PRELINEAR) in presolve.
         Disabling repeat represolve because of lazy constraint/incumbent callback.
Tried aggregator 1 time.
MIP Presolve eliminated 6938 rows and 11 columns.
MIP Presolve modified 12 coefficients.
Reduced MIP has 801 rows, 7074 columns, and 1750 nonzeros.
Reduced MIP has 6466 binaries, 0 generals, 0 SOSs, and 0 indicators.
Presolve time = 0.00 sec. (3.99 ticks)
Probing time = 0.00 sec. (1.06 ticks)
Clique table members: 468.
MIP emphasis: balance optimality and feasibility.
MIP search method: traditional branch-and-cut.
Parallel mode: none, using 1 thread.
Root relaxation solution time = 0.02 sec. (3.02 ticks)

        Nodes                                         Cuts/
   Node  Left     Objective  IInf  Best Integer    Best Bound    ItCnt     Gap         Variable B NodeID Parent  Depth

      0     0       11.0000    74                     11.0000       74         
      0     0       37.0009    61                   Cuts: 300      701         
      0     0       39.0017    85                   Cuts: 146      818         
      0     0       41.0009    74                    Cuts: 34      895         
      0     0       43.0000    32                   Cuts: 125      952         
      0     0       43.0000    54                    Cuts: 41      973         
      0     0       43.0000    32                     Cuts: 4      990         
      0     0       43.0000    60                     Cuts: 3     1030         
*     0+    0                           84.0000       43.0000            48.81%
      0     2       43.0000    18       84.0000       43.0000     1030   48.81%                        0             0
Elapsed time = 0.25 sec. (205.50 ticks, tree = 0.01 MB, solutions = 1)
     50    40       54.0000    14       84.0000       43.0000     1602   48.81%  25T23prec29T23 D     50     49     42
    114    74       43.0000    29       84.0000       43.0000     2236   48.81%  13T23prec15T23 N    114      1      2
    197   132       56.0002     4       84.0000       43.0000     2824   48.81%  20T11prec31T11 U    197    195     65
*   238   137      integral     0       59.0000       43.0000     3027   27.12%
    277   160       53.0017    34       59.0000       43.0000     3410   27.12%         23step1 U    277    276     38
    361   211       43.0000    45       59.0000       43.0000     4151   27.12%  17T17prec18T17 N    361      4      4
    451   279       51.0000    20       59.0000       43.0000     5170   27.12%  19T18prec23T18 U    451    450     36
    540   342       51.0001    11       59.0000       43.0000     6320   27.12%  23T18prec24T18 D    540    539     29
    653   408       52.0000    18       59.0000       43.0000     7123   27.12%         21step2 U    653    652     31
    757   486       58.0000     2       59.0000       43.0000     8142   27.12%  25T18prec31T18 D    757    756     68
*   831   193      integral     0       49.0000       43.0000     8754   12.24%
*   960+  196                           48.0000       43.0000            10.42%
   1060   250       43.0029    83       48.0000       43.0000    13619   10.42%         23step1 U   1060   1059      5
Elapsed time = 2.48 sec. (3411.36 ticks, tree = 0.64 MB, solutions = 4)
   1380   448       46.0041    40       48.0000       43.0000    19959   10.42%    20T9prec32T9 U   1380   1379     19
*  1488   325      integral     0       47.0000       43.0001    21389    8.51%
   1772   467       44.0042    47       47.0000       43.0016    25700    8.51%         18step2 D   1772    481      3
*  2127   306      integral     0       46.0000       44.0000    30343    4.35%
*  2133     1      integral     0       44.0000       44.0000    30359    0.00%

Clique cuts applied:  191
Cover cuts applied:  18
Implied bound cuts applied:  36
Mixed integer rounding cuts applied:  63
User cuts applied:  1704

Root node processing (before b&c):
  Real time             =    0.25 sec. (205.87 ticks)
Sequential b&c:
  Real time             =    4.23 sec. (6002.99 ticks)
                          ------------
Total (root+branch&cut) =    4.48 sec. (6208.86 ticks)
